120
1000
200
200
198
198
198
197
197
197
196
196
196
196
195
195
195
193
193
193
192
192
192
191
191
190
190
187
187
187
187
186
185
184
184
184
184
183
183
182
182
181
181
181
181
180
180
179
179
179
179
178
177
177
177
176
176
176
176
175
175
174
173
172
172
172
172
171
171
171
170
170
169
169
169
168
168
168
167
166
165
164
164
163
163
162
162
162
161
161
160
160
160
160
159
159
159
158
158
157
157
157
157
157
156
156
156
155
155
155
155
154
154
154
154
154
153
152
152
151
150
150
